c Result of efficient AIG-to-CNF conversion using package CNF
p cnf 467 1667
2 3 -356 0
2 3 -6 0
2 3 -374 0
-2 -3 0
-2 6 356 374 0
-3 403 404 4 5 0
3 -403 0
3 -5 0
3 -4 0
3 -404 0
-4 435 436 0
4 -435 0
4 -436 0
-5 405 406 437 438 0
5 -438 0
5 -437 0
5 -405 0
5 -406 0
-6 7 332 0
-6 462 7 -319 0
6 -7 0
6 -462 -332 0
6 319 -332 0
7 -462 -156 0
7 8 136 -156 0
-7 156 0
-7 462 -8 0
-7 462 -136 0
8 463 464 -101 0
8 463 -464 -9 0
-8 -463 0
-8 -464 9 0
-8 464 101 0
9 465 -10 0
9 -465 -77 0
-9 -465 77 0
-9 465 10 0
10 -466 -55 0
10 466 11 -29 0
-10 -466 55 0
-10 466 -11 0
-10 466 29 0
-11 3 12 0
11 -3 0
11 -12 0
-12 13 22 25 27 0
12 -27 0
12 -13 0
12 -25 0
12 -22 0
-13 418 450 14 21 0
13 -418 0
13 -21 0
13 -14 0
13 -450 0
-14 417 449 15 20 0
14 -417 0
14 -20 0
14 -15 0
14 -449 0
-15 423 455 16 18 0
15 -423 0
15 -18 0
15 -16 0
15 -455 0
-16 427 429 459 17 0
16 -17 0
16 -459 0
16 -427 0
16 -429 0
-17 428 460 461 0
17 -428 0
17 -461 0
17 -460 0
-18 425 426 458 19 0
18 -19 0
18 -458 0
18 -425 0
18 -426 0
-19 424 456 457 0
19 -424 0
19 -457 0
19 -456 0
-20 415 416 447 448 0
20 -448 0
20 -447 0
20 -415 0
20 -416 0
-21 408 409 440 441 0
21 -441 0
21 -440 0
21 -408 0
21 -409 0
-22 411 412 23 24 0
22 -411 0
22 -24 0
22 -23 0
22 -412 0
-23 443 444 0
23 -443 0
23 -444 0
-24 413 414 445 446 0
24 -446 0
24 -445 0
24 -413 0
24 -414 0
-25 421 422 452 26 0
25 -26 0
25 -452 0
25 -421 0
25 -422 0
-26 420 453 454 0
26 -420 0
26 -454 0
26 -453 0
-27 407 439 28 0
27 -28 0
27 -439 0
27 -407 0
-28 410 419 442 451 0
28 -451 0
28 -442 0
28 -410 0
28 -419 0
-29 30 32 0
-29 -30 -31 0
-29 -30 50 0
29 30 -32 0
29 -30 31 -50 0
-30 430 462 0
30 -430 0
30 -462 0
-31 431 463 0
31 -431 0
31 -463 0
-32 31 43 0
-32 -31 33 0
32 -31 -33 0
32 31 -43 0
33 34 -35 0
33 -34 -40 0
-33 -34 40 0
-33 34 35 0
-34 432 464 0
34 -432 0
34 -464 0
35 36 -37 0
35 -36 -39 0
-35 -36 39 0
-35 36 37 0
-36 433 465 0
36 -433 0
36 -465 0
37 -421 -38 0
37 -420 38 0
-37 421 -38 0
-37 420 38 0
-38 434 466 0
38 -434 0
38 -466 0
39 -423 -38 0
39 -422 38 0
-39 423 -38 0
-39 422 38 0
40 36 -41 0
40 -36 -42 0
-40 -36 42 0
-40 36 41 0
41 -425 -38 0
41 -424 38 0
-41 425 -38 0
-41 424 38 0
42 -427 -38 0
42 -426 38 0
-42 427 -38 0
-42 426 38 0
43 34 -44 0
43 -34 -47 0
-43 -34 47 0
-43 34 44 0
44 36 -45 0
44 -36 -46 0
-44 -36 46 0
-44 36 45 0
45 -413 -38 0
45 -412 38 0
-45 413 -38 0
-45 412 38 0
46 -415 -38 0
46 -414 38 0
-46 415 -38 0
-46 414 38 0
47 36 -48 0
47 -36 -49 0
-47 -36 49 0
-47 36 48 0
48 -417 -38 0
48 -416 38 0
-48 417 -38 0
-48 416 38 0
49 -419 -38 0
49 -418 38 0
-49 419 -38 0
-49 418 38 0
50 34 -51 0
50 -34 36 -54 0
-50 34 51 0
-50 -34 -36 0
-50 -34 54 0
51 36 -52 0
51 -36 -53 0
-51 -36 53 0
-51 36 52 0
52 -429 -38 0
52 -428 38 0
-52 429 -38 0
-52 428 38 0
53 -431 -38 0
53 -430 38 0
-53 431 -38 0
-53 430 38 0
54 -433 -38 0
54 -432 38 0
-54 433 -38 0
-54 432 38 0
55 11 -56 0
-55 -11 0
-55 56 0
-56 30 57 0
-56 -30 -31 0
-56 -30 72 0
56 30 -57 0
56 -30 31 -72 0
-57 31 65 0
-57 -31 58 0
57 -31 -58 0
57 31 -65 0
58 34 -59 0
58 -34 -62 0
-58 -34 62 0
-58 34 59 0
59 36 -60 0
59 -36 -61 0
-59 -36 61 0
-59 36 60 0
60 -422 -38 0
60 -421 38 0
-60 422 -38 0
-60 421 38 0
61 -424 -38 0
61 -423 38 0
-61 424 -38 0
-61 423 38 0
62 36 -63 0
62 -36 -64 0
-62 -36 64 0
-62 36 63 0
63 -426 -38 0
63 -425 38 0
-63 426 -38 0
-63 425 38 0
64 -428 -38 0
64 -427 38 0
-64 428 -38 0
-64 427 38 0
65 34 -66 0
65 -34 -69 0
-65 -34 69 0
-65 34 66 0
66 36 -67 0
66 -36 -68 0
-66 -36 68 0
-66 36 67 0
67 -414 -38 0
67 -413 38 0
-67 414 -38 0
-67 413 38 0
68 -416 -38 0
68 -415 38 0
-68 416 -38 0
-68 415 38 0
69 36 -70 0
69 -36 -71 0
-69 -36 71 0
-69 36 70 0
70 -418 -38 0
70 -417 38 0
-70 418 -38 0
-70 417 38 0
71 -420 -38 0
71 -419 38 0
-71 420 -38 0
-71 419 38 0
72 34 -73 0
72 -34 -76 0
-72 -34 76 0
-72 34 73 0
73 36 -74 0
73 -36 -75 0
-73 -36 75 0
-73 36 74 0
74 -430 -38 0
74 -429 38 0
-74 430 -38 0
-74 429 38 0
75 -432 -38 0
75 -431 38 0
-75 432 -38 0
-75 431 38 0
76 433 -434 465 0
-76 -433 0
-76 434 0
-76 -465 0
77 466 -78 0
77 -466 -89 0
-77 -466 89 0
-77 466 78 0
78 11 -79 0
-78 -11 0
-78 79 0
-79 30 80 0
-79 -30 -31 0
-79 -30 87 0
79 30 -80 0
79 -30 31 -87 0
-80 31 84 0
-80 -31 81 0
80 -31 -81 0
80 31 -84 0
81 34 -82 0
81 -34 -83 0
-81 -34 83 0
-81 34 82 0
82 36 -39 0
82 -36 -41 0
-82 -36 41 0
-82 36 39 0
83 36 -42 0
83 -36 -52 0
-83 -36 52 0
-83 36 42 0
84 34 -85 0
84 -34 -86 0
-84 -34 86 0
-84 34 85 0
85 36 -46 0
85 -36 -48 0
-85 -36 48 0
-85 36 46 0
86 -36 -37 0
86 36 -49 0
-86 36 49 0
-86 -36 37 0
87 34 -88 0
-87 -34 0
-87 88 0
88 36 -53 0
88 -36 -54 0
-88 -36 54 0
-88 36 53 0
89 11 -90 0
-89 -11 0
-89 90 0
-90 30 91 0
-90 -30 -31 0
-90 -30 98 0
90 30 -91 0
90 -30 31 -98 0
-91 31 95 0
-91 -31 92 0
91 -31 -92 0
91 31 -95 0
92 34 -93 0
92 -34 -94 0
-92 -34 94 0
-92 34 93 0
93 36 -61 0
93 -36 -63 0
-93 -36 63 0
-93 36 61 0
94 36 -64 0
94 -36 -74 0
-94 -36 74 0
-94 36 64 0
95 34 -96 0
95 -34 -97 0
-95 -34 97 0
-95 34 96 0
96 36 -68 0
96 -36 -70 0
-96 -36 70 0
-96 36 68 0
97 -36 -60 0
97 36 -71 0
-97 36 71 0
-97 -36 60 0
98 34 -99 0
-98 -34 0
-98 99 0
99 36 -75 0
99 -36 -100 0
-99 36 75 0
-99 -36 100 0
-100 434 -466 0
-100 433 434 0
100 -434 0
100 -433 466 0
101 465 -102 0
101 -465 -121 0
-101 -465 121 0
-101 465 102 0
102 -466 -111 0
102 466 11 -103 0
-102 -466 111 0
-102 466 -11 0
-102 466 103 0
-103 30 104 0
-103 -30 -31 0
-103 -30 110 0
103 30 -104 0
103 -30 31 -110 0
-104 31 105 0
-104 -31 109 0
104 31 -105 0
104 -31 -109 0
-105 34 106 0
-105 -34 44 0
105 -34 -44 0
105 34 -106 0
106 36 -107 0
106 -36 -108 0
-106 -36 108 0
-106 36 107 0
107 -409 -38 0
107 -408 38 0
-107 409 -38 0
-107 408 38 0
108 -411 -38 0
108 -410 38 0
-108 411 -38 0
-108 410 38 0
109 -34 -35 0
109 34 -47 0
-109 34 47 0
-109 -34 35 0
110 34 -40 0
110 -34 -51 0
-110 -34 51 0
-110 34 40 0
111 11 -30 -118 0
111 11 30 -112 0
-111 -11 0
-111 30 112 0
-111 -30 118 0
-112 31 113 0
-112 -31 117 0
112 31 -113 0
112 -31 -117 0
-113 34 114 0
-113 -34 66 0
113 -34 -66 0
113 34 -114 0
114 36 -115 0
114 -36 -116 0
-114 -36 116 0
-114 36 115 0
115 -410 -38 0
115 -409 38 0
-115 410 -38 0
-115 409 38 0
116 -412 -38 0
116 -411 38 0
-116 412 -38 0
-116 411 38 0
117 -34 -59 0
117 34 -69 0
-117 34 69 0
-117 -34 59 0
118 31 -119 0
118 -31 -120 0
-118 -31 120 0
-118 31 119 0
119 34 -62 0
119 -34 -73 0
-119 -34 73 0
-119 34 62 0
120 433 -434 465 34 0
-120 434 0
-120 -465 0
-120 -433 0
-120 -34 0
121 466 -122 0
121 -466 -129 0
-121 -466 129 0
-121 466 122 0
122 11 -123 0
-122 -11 0
-122 123 0
-123 30 124 0
-123 -30 -31 0
-123 -30 128 0
123 30 -124 0
123 -30 31 -128 0
-124 31 125 0
-124 -31 127 0
124 31 -125 0
124 -31 -127 0
-125 34 126 0
-125 -34 85 0
125 -34 -85 0
125 34 -126 0
126 -36 -45 0
126 36 -108 0
-126 36 108 0
-126 -36 45 0
127 -34 -82 0
127 34 -86 0
-127 34 86 0
-127 -34 82 0
128 34 -83 0
128 -34 -88 0
-128 -34 88 0
-128 34 83 0
129 11 -130 0
-129 -11 0
-129 130 0
-130 30 131 0
-130 -30 -31 0
-130 -30 135 0
130 30 -131 0
130 -30 31 -135 0
-131 31 133 0
-131 -31 132 0
131 -31 -132 0
131 31 -133 0
132 -34 -93 0
132 34 -97 0
-132 34 97 0
-132 -34 93 0
133 -34 -96 0
133 34 -134 0
-133 34 134 0
-133 -34 96 0
134 -36 -67 0
134 36 -116 0
-134 36 116 0
-134 -36 67 0
135 34 -94 0
135 -34 -99 0
-135 -34 99 0
-135 34 94 0
136 -463 -464 -148 0
136 -463 464 -137 0
-136 463 0
-136 -464 148 0
-136 464 137 0
137 465 -138 0
137 -465 -144 0
-137 -465 144 0
-137 465 138 0
138 466 -139 0
138 -466 -141 0
-138 -466 141 0
-138 466 139 0
139 11 30 -140 0
-139 -11 0
-139 -30 0
-139 140 0
-140 -31 110 0
-140 31 109 0
140 31 -109 0
140 -31 -110 0
141 11 -142 0
-141 -11 0
-141 142 0
-142 30 143 0
-142 -30 120 0
-142 -30 -31 0
142 30 -143 0
142 -30 31 -120 0
-143 -31 119 0
-143 31 117 0
143 31 -117 0
143 -31 -119 0
144 466 -145 0
144 -466 -147 0
-144 -466 147 0
-144 466 145 0
145 31 -127 146 0
145 -31 -128 146 0
-145 -146 0
-145 31 127 0
-145 -31 128 0
-146 11 30 0
146 -11 0
146 -30 0
147 31 -132 146 0
147 -31 -135 146 0
-147 -146 0
-147 31 132 0
-147 -31 135 0
148 465 -149 0
148 -465 -152 0
-148 -465 152 0
-148 465 149 0
149 466 -150 0
149 -466 -151 0
-149 -466 151 0
-149 466 150 0
150 31 -33 146 0
150 -31 -50 146 0
-150 -146 0
-150 31 33 0
-150 -31 50 0
151 31 -58 146 0
151 -31 -72 146 0
-151 -146 0
-151 31 58 0
-151 -31 72 0
152 466 -153 0
152 -466 -154 0
-152 -466 154 0
-152 466 153 0
153 31 -81 146 0
153 -31 -87 146 0
-153 -146 0
-153 31 81 0
-153 -31 87 0
154 146 -155 0
-154 -146 0
-154 155 0
155 31 -92 0
155 -31 -98 0
-155 -31 98 0
-155 31 92 0
156 12 -30 -300 0
156 12 30 -157 0
-156 -12 0
-156 30 157 0
-156 -30 300 0
157 31 -158 0
157 -31 -278 292 0
-157 -31 -292 0
-157 31 158 0
-157 -31 278 0
158 34 -159 0
158 -34 -250 0
-158 -34 250 0
-158 34 159 0
159 36 -160 0
159 -36 -223 0
-159 -36 223 0
-159 36 160 0
160 38 -161 0
160 -38 -197 0
-160 -38 197 0
-160 38 161 0
161 -462 162 -186 0
161 462 162 -171 0
-161 -162 0
-161 -462 186 0
-161 462 171 0
-162 437 438 4 163 0
162 -437 0
162 -163 0
162 -4 0
162 -438 0
-163 458 461 164 165 0
163 -458 0
163 -165 0
163 -164 0
163 -461 0
-164 439 440 441 442 0
164 -442 0
164 -441 0
164 -439 0
164 -440 0
-165 445 446 23 166 0
165 -445 0
165 -166 0
165 -23 0
165 -446 0
-166 459 460 167 168 0
166 -459 0
166 -168 0
166 -167 0
166 -460 0
-167 456 457 0
167 -456 0
167 -457 0
-168 450 451 169 170 0
168 -450 0
168 -170 0
168 -169 0
168 -451 0
-169 447 448 449 0
169 -447 0
169 -449 0
169 -448 0
-170 452 453 454 455 0
170 -455 0
170 -454 0
170 -452 0
170 -453 0
-171 463 172 0
-171 -463 179 0
171 -463 -179 0
171 463 -172 0
-172 464 176 0
-172 -464 173 0
172 -464 -173 0
172 464 -176 0
173 465 -174 0
173 -465 -175 0
-173 -465 175 0
-173 465 174 0
174 -413 -466 0
174 -412 466 0
-174 412 466 0
-174 413 -466 0
175 -415 -466 0
175 -414 466 0
-175 414 466 0
-175 415 -466 0
176 465 -177 0
176 -465 -178 0
-176 -465 178 0
-176 465 177 0
177 -409 -466 0
177 -408 466 0
-177 408 466 0
-177 409 -466 0
178 -411 -466 0
178 -410 466 0
-178 410 466 0
-178 411 -466 0
179 464 -180 0
179 -464 -183 0
-179 -464 183 0
-179 464 180 0
180 465 -181 0
180 -465 -182 0
-180 -465 182 0
-180 465 181 0
181 -417 -466 0
181 -416 466 0
-181 416 466 0
-181 417 -466 0
182 -419 -466 0
182 -418 466 0
-182 418 466 0
-182 419 -466 0
183 465 -184 0
183 -465 -185 0
-183 -465 185 0
-183 465 184 0
184 -421 -466 0
184 -420 466 0
-184 420 466 0
-184 421 -466 0
185 -423 -466 0
185 -422 466 0
-185 422 466 0
-185 423 -466 0
186 463 -187 0
186 -463 -194 0
-186 -463 194 0
-186 463 187 0
187 464 -188 0
187 -464 -191 0
-187 -464 191 0
-187 464 188 0
188 465 -189 0
188 -465 -190 0
-188 -465 190 0
-188 465 189 0
189 -425 -466 0
189 -424 466 0
-189 424 466 0
-189 425 -466 0
190 -427 -466 0
190 -426 466 0
-190 426 466 0
-190 427 -466 0
191 465 -192 0
191 -465 -193 0
-191 -465 193 0
-191 465 192 0
192 -429 -466 0
192 -428 466 0
-192 428 466 0
-192 429 -466 0
193 -431 -466 0
193 -430 466 0
-193 430 466 0
-193 431 -466 0
194 464 -195 0
-194 -464 0
-194 195 0
195 465 -196 0
195 -434 -465 466 0
-195 465 196 0
-195 -465 -466 0
-195 434 -465 0
196 -433 -466 0
196 -432 466 0
-196 432 466 0
-196 433 -466 0
197 -462 162 -213 0
197 462 162 -198 0
-197 -162 0
-197 -462 213 0
-197 462 198 0
-198 463 199 0
-198 -463 206 0
198 -463 -206 0
198 463 -199 0
-199 464 203 0
-199 -464 200 0
199 -464 -200 0
199 464 -203 0
200 465 -201 0
200 -465 -202 0
-200 -465 202 0
-200 465 201 0
201 -414 -466 0
201 -413 466 0
-201 413 466 0
-201 414 -466 0
202 -416 -466 0
202 -415 466 0
-202 415 466 0
-202 416 -466 0
203 465 -204 0
203 -465 -205 0
-203 -465 205 0
-203 465 204 0
204 -410 -466 0
204 -409 466 0
-204 409 466 0
-204 410 -466 0
205 -412 -466 0
205 -411 466 0
-205 411 466 0
-205 412 -466 0
206 464 -207 0
206 -464 -210 0
-206 -464 210 0
-206 464 207 0
207 465 -208 0
207 -465 -209 0
-207 -465 209 0
-207 465 208 0
208 -418 -466 0
208 -417 466 0
-208 417 466 0
-208 418 -466 0
209 -420 -466 0
209 -419 466 0
-209 419 466 0
-209 420 -466 0
210 465 -211 0
210 -465 -212 0
-210 -465 212 0
-210 465 211 0
211 -422 -466 0
211 -421 466 0
-211 421 466 0
-211 422 -466 0
212 -424 -466 0
212 -423 466 0
-212 423 466 0
-212 424 -466 0
213 463 -214 0
213 -463 -221 0
-213 -463 221 0
-213 463 214 0
214 464 -215 0
214 -464 -218 0
-214 -464 218 0
-214 464 215 0
215 465 -216 0
215 -465 -217 0
-215 -465 217 0
-215 465 216 0
216 -426 -466 0
216 -425 466 0
-216 425 466 0
-216 426 -466 0
217 -428 -466 0
217 -427 466 0
-217 427 466 0
-217 428 -466 0
218 465 -219 0
218 -465 -220 0
-218 -465 220 0
-218 465 219 0
219 -430 -466 0
219 -429 466 0
-219 429 466 0
-219 430 -466 0
220 -432 -466 0
220 -431 466 0
-220 431 466 0
-220 432 -466 0
221 464 -222 0
-221 -464 0
-221 222 0
222 -433 465 466 0
222 -434 465 -466 0
-222 -465 0
-222 434 -466 0
-222 433 466 0
223 38 -224 0
223 -38 -237 0
-223 -38 237 0
-223 38 224 0
224 -462 162 -232 0
224 462 162 -225 0
-224 -162 0
-224 -462 232 0
-224 462 225 0
-225 463 226 0
-225 -463 229 0
225 -463 -229 0
225 463 -226 0
-226 464 228 0
-226 -464 227 0
226 -464 -227 0
226 464 -228 0
227 465 -175 0
227 -465 -181 0
-227 -465 181 0
-227 465 175 0
228 -465 -174 0
228 465 -178 0
-228 465 178 0
-228 -465 174 0
229 464 -230 0
229 -464 -231 0
-229 -464 231 0
-229 464 230 0
230 465 -182 0
230 -465 -184 0
-230 -465 184 0
-230 465 182 0
231 465 -185 0
231 -465 -189 0
-231 -465 189 0
-231 465 185 0
232 463 -233 0
232 -463 -236 0
-232 -463 236 0
-232 463 233 0
233 464 -234 0
233 -464 -235 0
-233 -464 235 0
-233 464 234 0
234 465 -190 0
234 -465 -192 0
-234 -465 192 0
-234 465 190 0
235 465 -193 0
235 -465 -196 0
-235 -465 196 0
-235 465 193 0
236 -434 464 465 466 0
-236 -466 0
-236 -465 0
-236 434 0
-236 -464 0
237 -462 162 -245 0
237 462 162 -238 0
-237 -162 0
-237 -462 245 0
-237 462 238 0
238 463 -239 0
238 -463 -242 0
-238 -463 242 0
-238 463 239 0
239 464 -240 0
239 -464 -241 0
-239 -464 241 0
-239 464 240 0
240 -465 -201 0
240 465 -205 0
-240 465 205 0
-240 -465 201 0
241 465 -202 0
241 -465 -208 0
-241 -465 208 0
-241 465 202 0
242 464 -243 0
242 -464 -244 0
-242 -464 244 0
-242 464 243 0
243 465 -209 0
243 -465 -211 0
-243 -465 211 0
-243 465 209 0
244 465 -212 0
244 -465 -216 0
-244 -465 216 0
-244 465 212 0
245 463 -246 0
-245 -463 0
-245 246 0
246 464 -247 0
246 -464 -248 0
-246 -464 248 0
-246 464 247 0
247 465 -217 0
247 -465 -219 0
-247 -465 219 0
-247 465 217 0
248 465 -220 0
248 -465 -249 0
-248 -465 249 0
-248 465 220 0
-249 433 466 0
-249 434 -466 0
249 -434 -466 0
249 -433 466 0
250 36 -251 0
250 -36 -264 0
-250 -36 264 0
-250 36 251 0
251 38 -252 0
251 -38 -258 0
-251 -38 258 0
-251 38 252 0
252 -462 162 -256 0
252 462 162 -253 0
-252 -162 0
-252 -462 256 0
-252 462 253 0
253 463 -254 0
253 -463 -255 0
-253 -463 255 0
-253 463 254 0
254 464 -173 0
254 -464 -180 0
-254 -464 180 0
-254 464 173 0
255 464 -183 0
255 -464 -188 0
-255 -464 188 0
-255 464 183 0
256 463 -257 0
-256 -463 0
-256 257 0
257 464 -191 0
257 -464 -195 0
-257 -464 195 0
-257 464 191 0
258 -462 162 -262 0
258 462 162 -259 0
-258 -162 0
-258 -462 262 0
-258 462 259 0
259 463 -260 0
259 -463 -261 0
-259 -463 261 0
-259 463 260 0
260 464 -200 0
260 -464 -207 0
-260 -464 207 0
-260 464 200 0
261 464 -210 0
261 -464 -215 0
-261 -464 215 0
-261 464 210 0
262 463 -263 0
-262 -463 0
-262 263 0
263 464 -218 0
263 -464 -222 0
-263 -464 222 0
-263 464 218 0
264 38 -265 0
264 -38 -272 0
-264 -38 272 0
-264 38 265 0
265 -462 162 -269 0
265 462 162 -266 0
-265 -162 0
-265 -462 269 0
-265 462 266 0
266 463 -267 0
266 -463 -268 0
-266 -463 268 0
-266 463 267 0
267 464 -227 0
267 -464 -230 0
-267 -464 230 0
-267 464 227 0
268 464 -231 0
268 -464 -234 0
-268 -464 234 0
-268 464 231 0
269 463 -270 0
-269 -463 0
-269 270 0
270 464 -235 0
270 -464 -271 0
-270 -464 271 0
-270 464 235 0
271 -434 465 466 0
-271 434 0
-271 -466 0
-271 -465 0
272 -462 162 -276 0
272 462 162 -273 0
-272 -162 0
-272 -462 276 0
-272 462 273 0
273 463 -274 0
273 -463 -275 0
-273 -463 275 0
-273 463 274 0
274 464 -241 0
274 -464 -243 0
-274 -464 243 0
-274 464 241 0
275 464 -244 0
275 -464 -247 0
-275 -464 247 0
-275 464 244 0
276 463 -277 0
-276 -463 0
-276 277 0
277 464 -248 0
-277 -464 0
-277 248 0
-278 34 -36 286 0
-278 34 36 279 0
278 -34 0
278 36 -279 0
278 -36 -286 0
279 38 -280 0
279 -38 -283 0
-279 -38 283 0
-279 38 280 0
280 -462 162 -282 0
280 462 162 -281 0
-280 -162 0
-280 -462 282 0
-280 462 281 0
281 463 -179 0
281 -463 -187 0
-281 -463 187 0
-281 463 179 0
282 463 -194 0
-282 -463 0
-282 194 0
283 -462 162 -285 0
283 462 162 -284 0
-283 -162 0
-283 -462 285 0
-283 462 284 0
284 463 -206 0
284 -463 -214 0
-284 -463 214 0
-284 463 206 0
285 463 -221 0
-285 -463 0
-285 221 0
286 38 -287 0
286 -38 -290 0
-286 -38 290 0
-286 38 287 0
287 -462 162 -289 0
287 462 162 -288 0
-287 -162 0
-287 -462 289 0
-287 462 288 0
288 463 -229 0
288 -463 -233 0
-288 -463 233 0
-288 463 229 0
289 463 -236 0
-289 -463 0
-289 236 0
290 463 -242 291 0
290 -463 -246 291 0
-290 -291 0
-290 -463 246 0
-290 463 242 0
-291 462 162 0
291 -462 0
291 -162 0
292 -34 36 293 0
292 -34 -36 296 0
-292 34 0
-292 36 -293 0
-292 -36 -296 0
293 38 -294 0
293 -38 -295 0
-293 -38 295 0
-293 38 294 0
294 463 -255 291 0
294 -463 -257 291 0
-294 -291 0
-294 -463 257 0
-294 463 255 0
295 463 -261 291 0
295 -463 -263 291 0
-295 -291 0
-295 -463 263 0
-295 463 261 0
296 38 -297 0
296 -38 -298 0
-296 -38 298 0
-296 38 297 0
297 463 -268 291 0
297 -463 -270 291 0
-297 -291 0
-297 -463 270 0
-297 463 268 0
298 291 -299 0
-298 -291 0
-298 299 0
299 463 -275 0
299 -463 -277 0
-299 -463 277 0
-299 463 275 0
300 -31 -315 0
300 31 -301 308 0
-300 31 301 0
-300 -31 315 0
-300 31 -308 0
-301 34 -36 305 0
-301 34 36 302 0
301 -34 0
301 36 -302 0
301 -36 -305 0
302 38 -303 0
302 -38 -304 0
-302 -38 304 0
-302 38 303 0
303 -186 291 0
-303 186 0
-303 -291 0
304 -213 291 0
-304 213 0
-304 -291 0
305 38 -306 0
305 -38 -307 0
-305 -38 307 0
-305 38 306 0
306 -232 291 0
-306 232 0
-306 -291 0
307 -245 291 0
-307 245 0
-307 -291 0
308 -34 36 309 0
308 -34 -36 312 0
-308 34 0
-308 36 -309 0
-308 -36 -312 0
309 38 -310 0
309 -38 -311 0
-309 -38 311 0
-309 38 310 0
310 -256 291 0
-310 256 0
-310 -291 0
311 -262 291 0
-311 262 0
-311 -291 0
312 38 -313 0
312 -38 -314 0
-312 -38 314 0
-312 38 313 0
313 -269 291 0
-313 269 0
-313 -291 0
314 -276 291 0
-314 276 0
-314 -291 0
315 34 36 -316 0
-315 -34 0
-315 -36 0
-315 316 0
316 38 -317 0
316 -38 -318 0
-316 -38 318 0
-316 38 317 0
317 -282 291 0
-317 282 0
-317 -291 0
318 -285 291 0
-318 285 0
-318 -291 0
-319 -463 326 0
-319 463 320 323 0
319 463 -320 0
319 -463 -326 0
319 463 -323 0
320 -464 -465 -322 0
320 -464 465 -321 0
-320 464 0
-320 -465 322 0
-320 465 321 0
321 466 -55 0
321 -466 -78 0
-321 -466 78 0
-321 466 55 0
322 466 -89 0
322 -466 -139 0
-322 -466 139 0
-322 466 89 0
323 464 -465 -325 0
323 464 465 -324 0
-323 -464 0
-323 -465 325 0
-323 465 324 0
324 466 -111 0
324 -466 -122 0
-324 -466 122 0
-324 466 111 0
325 466 -129 0
-325 -466 0
-325 129 0
326 464 -327 0
326 -464 -330 0
-326 -464 330 0
-326 464 327 0
327 465 -328 0
327 -465 -329 0
-327 -465 329 0
-327 465 328 0
328 466 -141 0
328 -466 -145 0
-328 -466 145 0
-328 466 141 0
329 466 -147 0
329 -466 -150 0
-329 -466 150 0
-329 466 147 0
330 465 -331 0
330 -465 466 -154 0
-330 -465 -466 0
-330 465 331 0
-330 -465 154 0
331 466 -151 0
331 -466 -153 0
-331 -466 153 0
-331 466 151 0
332 12 -30 -347 0
332 12 30 -333 0
-332 -12 0
-332 30 333 0
-332 -30 347 0
333 31 -334 0
333 -31 -341 344 0
-333 -31 -344 0
-333 31 334 0
-333 -31 341 0
334 34 -335 0
334 -34 -338 0
-334 -34 338 0
-334 34 335 0
335 36 -336 0
335 -36 -337 0
-335 -36 337 0
-335 36 336 0
336 38 -197 0
336 -38 -224 0
-336 -38 224 0
-336 38 197 0
337 38 -237 0
337 -38 -252 0
-337 -38 252 0
-337 38 237 0
338 36 -339 0
338 -36 -340 0
-338 -36 340 0
-338 36 339 0
339 38 -258 0
339 -38 -265 0
-339 -38 265 0
-339 38 258 0
340 38 -272 0
340 -38 -280 0
-340 -38 280 0
-340 38 272 0
-341 34 -36 343 0
-341 34 36 342 0
341 -34 0
341 36 -342 0
341 -36 -343 0
342 38 -283 0
342 -38 -287 0
-342 -38 287 0
-342 38 283 0
343 38 -290 0
343 -38 -294 0
-343 -38 294 0
-343 38 290 0
344 -34 36 345 0
344 -34 -36 346 0
-344 34 0
-344 36 -345 0
-344 -36 -346 0
345 38 -295 0
345 -38 -297 0
-345 -38 297 0
-345 38 295 0
346 38 -298 0
346 -38 -303 0
-346 -38 303 0
-346 38 298 0
347 -31 -354 0
347 31 -348 351 0
-347 31 348 0
-347 -31 354 0
-347 31 -351 0
-348 34 -36 350 0
-348 34 36 349 0
348 -34 0
348 36 -349 0
348 -36 -350 0
349 38 -304 0
349 -38 -306 0
-349 -38 306 0
-349 38 304 0
350 38 -307 0
350 -38 -310 0
-350 -38 310 0
-350 38 307 0
351 -34 36 352 0
351 -34 -36 353 0
-351 34 0
-351 36 -352 0
-351 -36 -353 0
352 38 -311 0
352 -38 -313 0
-352 -38 313 0
-352 38 311 0
353 38 -314 0
353 -38 -317 0
-353 -38 317 0
-353 38 314 0
354 34 36 -355 0
-354 -34 0
-354 -36 0
-354 355 0
355 38 -285 291 0
355 -38 -289 291 0
-355 -291 0
-355 38 285 0
-355 -38 289 0
356 -291 -364 0
356 462 357 -364 0
-356 364 0
-356 291 -357 0
-356 -462 291 0
357 463 -358 0
357 -463 -361 362 0
-357 -463 361 0
-357 463 358 0
-357 -463 -362 0
358 464 -359 0
358 -464 -360 0
-358 -464 360 0
-358 464 359 0
359 -465 -10 0
359 465 -121 0
-359 465 121 0
-359 -465 10 0
360 465 -77 0
360 -465 -138 0
-360 -465 138 0
-360 465 77 0
-361 464 -465 149 0
-361 464 465 144 0
361 -464 0
361 -465 -149 0
361 465 -144 0
362 -464 -465 363 0
362 -464 465 152 0
-362 464 0
-362 -465 -363 0
-362 465 -152 0
363 -466 -118 146 0
-363 466 0
-363 118 0
-363 -146 0
364 12 -30 -371 0
364 12 30 -365 0
-364 -12 0
-364 30 365 0
-364 -30 371 0
365 31 -366 0
365 -31 -369 370 0
-365 -31 -370 0
-365 31 366 0
-365 -31 369 0
366 34 -367 0
366 -34 -368 0
-366 -34 368 0
-366 34 367 0
367 36 -223 0
367 -36 -251 0
-367 -36 251 0
-367 36 223 0
368 36 -264 0
368 -36 -279 0
-368 -36 279 0
-368 36 264 0
-369 34 -36 293 0
-369 34 36 286 0
369 -34 0
369 36 -286 0
369 -36 -293 0
370 -34 36 296 0
370 -34 -36 302 0
-370 34 0
-370 36 -296 0
-370 -36 -302 0
371 31 -34 -373 0
371 31 34 -372 0
-371 -31 0
-371 34 372 0
-371 -34 373 0
372 36 -305 0
372 -36 -309 0
-372 -36 309 0
-372 36 305 0
373 36 -312 0
373 -36 -316 0
-373 -36 316 0
-373 36 312 0
374 -462 -386 0
374 375 383 -386 0
-374 386 0
-374 462 -375 0
-374 462 -383 0
375 463 464 -377 0
375 463 -464 -376 0
-375 -463 0
-375 -464 376 0
-375 464 377 0
376 -465 -321 0
376 465 -325 0
-376 465 325 0
-376 -465 321 0
377 -465 -324 0
377 465 466 -378 0
-377 465 -466 0
-377 -465 324 0
-377 465 378 0
378 11 -30 -155 0
378 11 30 -379 0
-378 -11 0
-378 30 379 0
-378 -30 155 0
-379 31 380 0
-379 -31 95 0
379 -31 -95 0
379 31 -380 0
-380 34 381 0
-380 -34 134 0
380 -34 -134 0
380 34 -381 0
381 -36 -115 0
381 36 -382 0
-381 36 382 0
-381 -36 115 0
382 -408 -38 0
382 -407 38 0
-382 408 -38 0
-382 407 38 0
383 -463 -464 -385 0
383 -463 464 -384 0
-383 463 0
-383 -464 385 0
-383 464 384 0
384 465 -322 0
384 -465 -328 0
-384 -465 328 0
-384 465 322 0
385 465 -329 0
385 -465 -331 0
-385 -465 331 0
-385 465 329 0
386 12 -30 -399 0
386 12 30 -387 0
-386 -12 0
-386 30 387 0
-386 -30 399 0
387 31 -388 0
387 -31 -397 398 0
-387 -31 -398 0
-387 31 388 0
-387 -31 397 0
388 34 -389 0
388 -34 -396 0
-388 -34 396 0
-388 34 389 0
389 -36 -336 0
389 36 -390 0
-389 36 390 0
-389 -36 336 0
390 -38 -161 0
390 38 162 -391 0
-390 -38 161 0
-390 38 -162 0
-390 38 391 0
-391 -462 299 0
-391 462 392 0
391 -462 -299 0
391 462 -392 0
-392 -463 274 0
-392 463 393 0
392 -463 -274 0
392 463 -393 0
-393 464 394 0
-393 -464 240 0
393 -464 -240 0
393 464 -394 0
394 -465 -204 0
394 465 -395 0
-394 465 395 0
-394 -465 204 0
395 -408 -466 0
395 -407 466 0
-395 407 466 0
-395 408 -466 0
396 36 -337 0
396 -36 -339 0
-396 -36 339 0
-396 36 337 0
-397 34 -36 342 0
-397 34 36 340 0
397 -34 0
397 36 -340 0
397 -36 -342 0
398 -34 36 343 0
398 -34 -36 345 0
-398 34 0
-398 36 -343 0
-398 -36 -345 0
399 -31 -402 0
399 31 -400 401 0
-399 31 400 0
-399 -31 402 0
-399 31 -401 0
-400 34 -36 349 0
-400 34 36 346 0
400 -34 0
400 36 -346 0
400 -36 -349 0
401 -34 36 350 0
401 -34 -36 352 0
-401 34 0
-401 36 -350 0
-401 -36 -352 0
402 34 -36 -355 0
402 34 36 -353 0
-402 -34 0
-402 36 353 0
-402 -36 355 0
-467 0
2 0

